NAME : in_house_9_18
TYPE : TSP
DIMENSION : 9
EDGE_WEIGHT_TYPE : EXPLICIT
EDGE_WEIGHT_FORMAT : UPPER_ROW
COMMENT : INVERSION_SHIFT=8
EDGE_WEIGHT_SECTION
58
70
26
42
62
39
43
10
47
47
28
10
30
51
52
34
27
58
44
4
18
7
67
29
46
36
34
23
10
81
71
53
73
76
46
29
